p cnf 968 2487
51 -2 -701 0
-51 2 0
-51 701 0
52 -51 -3 0
-52 51 0
-52 3 0
53 -702 -4 0
-53 702 0
-53 4 0
54 -53 -1 0
-54 53 0
-54 1 0
55 -703 -704 0
-55 703 0
-55 704 0
56 -705 -706 0
-56 705 0
-56 706 0
57 -56 -8 0
-57 56 0
-57 8 0
58 -707 -55 0
-58 707 0
-58 55 0
59 -708 -706 0
-59 708 0
-59 706 0
60 -59 -709 0
-60 59 0
-60 709 0
61 -710 -58 0
-61 710 0
-61 58 0
62 -11 -10 0
-62 11 0
-62 10 0
63 -62 -12 0
-63 62 0
-63 12 0
64 -711 -61 0
-64 711 0
-64 61 0
65 -712 -713 0
-65 712 0
-65 713 0
66 -65 -15 0
-66 65 0
-66 15 0
67 -714 -64 0
-67 714 0
-67 64 0
68 -715 -16 0
-68 715 0
-68 16 0
69 -68 -18 0
-69 68 0
-69 18 0
70 -716 -67 0
-70 716 0
-70 67 0
71 -19 -706 0
-71 19 0
-71 706 0
72 -71 -717 0
-72 71 0
-72 717 0
73 -718 -70 0
-73 718 0
-73 70 0
74 -5 -4 0
-74 5 0
-74 4 0
75 -74 -719 0
-75 74 0
-75 719 0
76 -720 -73 0
-76 720 0
-76 73 0
77 -721 -722 0
-77 721 0
-77 722 0
78 -77 -723 0
-78 77 0
-78 723 0
79 -724 -76 0
-79 724 0
-79 76 0
80 -725 -22 0
-80 725 0
-80 22 0
81 -80 -24 0
-81 80 0
-81 24 0
82 -726 -79 0
-82 726 0
-82 79 0
83 -26 -727 0
-83 26 0
-83 727 0
84 -83 -719 0
-84 83 0
-84 719 0
85 -728 -82 0
-85 728 0
-85 82 0
86 -27 -729 0
-86 27 0
-86 729 0
87 -86 -730 0
-87 86 0
-87 730 0
88 -731 -85 0
-88 731 0
-88 85 0
89 -29 -719 0
-89 29 0
-89 719 0
90 -89 -28 0
-90 89 0
-90 28 0
91 -732 -88 0
-91 732 0
-91 88 0
92 -733 -9 0
-92 733 0
-92 9 0
93 -92 -30 0
-93 92 0
-93 30 0
94 -734 -91 0
-94 734 0
-94 91 0
95 -735 -736 0
-95 735 0
-95 736 0
96 -95 -29 0
-96 95 0
-96 29 0
97 -737 -94 0
-97 737 0
-97 94 0
98 -738 -702 0
-98 738 0
-98 702 0
99 -98 -739 0
-99 98 0
-99 739 0
100 -740 -97 0
-100 740 0
-100 97 0
101 -24 -713 0
-101 24 0
-101 713 0
102 -101 -730 0
-102 101 0
-102 730 0
103 -741 -100 0
-103 741 0
-103 100 0
104 -742 -6 0
-104 742 0
-104 6 0
105 -104 -20 0
-105 104 0
-105 20 0
106 -743 -103 0
-106 743 0
-106 103 0
107 -744 -715 0
-107 744 0
-107 715 0
108 -107 -712 0
-108 107 0
-108 712 0
109 -745 -106 0
-109 745 0
-109 106 0
110 -746 -17 0
-110 746 0
-110 17 0
111 -110 -705 0
-111 110 0
-111 705 0
112 -747 -109 0
-112 747 0
-112 109 0
113 -744 -27 0
-113 744 0
-113 27 0
114 -113 -1 0
-114 113 0
-114 1 0
115 -748 -112 0
-115 748 0
-115 112 0
116 -722 -749 0
-116 722 0
-116 749 0
117 -116 -709 0
-117 116 0
-117 709 0
118 -750 -115 0
-118 750 0
-118 115 0
119 -751 -18 0
-119 751 0
-119 18 0
120 -119 -32 0
-120 119 0
-120 32 0
121 -752 -118 0
-121 752 0
-121 118 0
122 -742 -21 0
-122 742 0
-122 21 0
123 -122 -30 0
-123 122 0
-123 30 0
124 -753 -121 0
-124 753 0
-124 121 0
125 -754 -755 0
-125 754 0
-125 755 0
126 -125 -756 0
-126 125 0
-126 756 0
127 -757 -124 0
-127 757 0
-127 124 0
128 -9 -4 0
-128 9 0
-128 4 0
129 -128 -730 0
-129 128 0
-129 730 0
130 -758 -127 0
-130 758 0
-130 127 0
131 -744 -31 0
-131 744 0
-131 31 0
132 -131 -735 0
-132 131 0
-132 735 0
133 -759 -130 0
-133 759 0
-133 130 0
134 -41 -760 0
-134 41 0
-134 760 0
135 -134 -730 0
-135 134 0
-135 730 0
136 -761 -133 0
-136 761 0
-136 133 0
137 -35 -23 0
-137 35 0
-137 23 0
138 -137 -41 0
-138 137 0
-138 41 0
139 -762 -136 0
-139 762 0
-139 136 0
140 -763 -8 0
-140 763 0
-140 8 0
141 -140 -764 0
-141 140 0
-141 764 0
142 -765 -139 0
-142 765 0
-142 139 0
143 -25 -729 0
-143 25 0
-143 729 0
144 -143 -730 0
-144 143 0
-144 730 0
145 -766 -142 0
-145 766 0
-145 142 0
146 -733 -7 0
-146 733 0
-146 7 0
147 -146 -749 0
-147 146 0
-147 749 0
148 -767 -145 0
-148 767 0
-148 145 0
149 -735 -30 0
-149 735 0
-149 30 0
150 -149 -20 0
-150 149 0
-150 20 0
151 -768 -148 0
-151 768 0
-151 148 0
152 -31 -719 0
-152 31 0
-152 719 0
153 -152 -12 0
-153 152 0
-153 12 0
154 -769 -151 0
-154 769 0
-154 151 0
155 -763 -17 0
-155 763 0
-155 17 0
156 -155 -770 0
-156 155 0
-156 770 0
157 -771 -154 0
-157 771 0
-157 154 0
158 -42 -17 0
-158 42 0
-158 17 0
159 -158 -746 0
-159 158 0
-159 746 0
160 -772 -157 0
-160 772 0
-160 157 0
161 -38 -4 0
-161 38 0
-161 4 0
162 -161 -41 0
-162 161 0
-162 41 0
163 -773 -160 0
-163 773 0
-163 160 0
164 -24 -5 0
-164 24 0
-164 5 0
165 -164 -32 0
-165 164 0
-165 32 0
166 -774 -163 0
-166 774 0
-166 163 0
167 -31 -770 0
-167 31 0
-167 770 0
168 -167 -775 0
-168 167 0
-168 775 0
169 -776 -166 0
-169 776 0
-169 166 0
170 -777 -13 0
-170 777 0
-170 13 0
171 -170 -37 0
-171 170 0
-171 37 0
172 -778 -169 0
-172 778 0
-172 169 0
173 -25 -713 0
-173 25 0
-173 713 0
174 -173 -705 0
-174 173 0
-174 705 0
175 -779 -172 0
-175 779 0
-175 172 0
176 -38 -702 0
-176 38 0
-176 702 0
177 -176 -725 0
-177 176 0
-177 725 0
178 -780 -175 0
-178 780 0
-178 175 0
179 -45 -729 0
-179 45 0
-179 729 0
180 -179 -746 0
-180 179 0
-180 746 0
181 -781 -178 0
-181 781 0
-181 178 0
182 -35 -712 0
-182 35 0
-182 712 0
183 -182 -46 0
-183 182 0
-183 46 0
184 -782 -181 0
-184 782 0
-184 181 0
185 -17 -9 0
-185 17 0
-185 9 0
186 -185 -783 0
-186 185 0
-186 783 0
187 -784 -184 0
-187 784 0
-187 184 0
188 -744 -5 0
-188 744 0
-188 5 0
189 -188 -8 0
-189 188 0
-189 8 0
190 -785 -187 0
-190 785 0
-190 187 0
191 -754 -2 0
-191 754 0
-191 2 0
192 -191 -709 0
-192 191 0
-192 709 0
193 -786 -190 0
-193 786 0
-193 190 0
194 -736 -729 0
-194 736 0
-194 729 0
195 -194 -28 0
-195 194 0
-195 28 0
196 -787 -193 0
-196 787 0
-196 193 0
197 -713 -8 0
-197 713 0
-197 8 0
198 -197 -39 0
-198 197 0
-198 39 0
199 -788 -196 0
-199 788 0
-199 196 0
200 -24 -721 0
-200 24 0
-200 721 0
201 -200 -775 0
-201 200 0
-201 775 0
202 -789 -199 0
-202 789 0
-202 199 0
203 -783 -735 0
-203 783 0
-203 735 0
204 -203 -709 0
-204 203 0
-204 709 0
205 -790 -202 0
-205 790 0
-205 202 0
206 -47 -721 0
-206 47 0
-206 721 0
207 -206 -719 0
-207 206 0
-207 719 0
208 -791 -205 0
-208 791 0
-208 205 0
209 -19 -12 0
-209 19 0
-209 12 0
210 -209 -709 0
-210 209 0
-210 709 0
211 -792 -208 0
-211 792 0
-211 208 0
212 -793 -736 0
-212 793 0
-212 736 0
213 -212 -11 0
-213 212 0
-213 11 0
214 -794 -211 0
-214 794 0
-214 211 0
215 -17 -712 0
-215 17 0
-215 712 0
216 -215 -11 0
-216 215 0
-216 11 0
217 -795 -214 0
-217 795 0
-217 214 0
218 -18 -2 0
-218 18 0
-218 2 0
219 -218 -730 0
-219 218 0
-219 730 0
220 -796 -217 0
-220 796 0
-220 217 0
221 -727 -23 0
-221 727 0
-221 23 0
222 -221 -746 0
-222 221 0
-222 746 0
223 -797 -220 0
-223 797 0
-223 220 0
224 -41 -708 0
-224 41 0
-224 708 0
225 -224 -28 0
-225 224 0
-225 28 0
226 -798 -223 0
-226 798 0
-226 223 0
227 -799 -30 0
-227 799 0
-227 30 0
228 -227 -20 0
-228 227 0
-228 20 0
229 -800 -226 0
-229 800 0
-229 226 0
230 -763 -15 0
-230 763 0
-230 15 0
231 -230 -801 0
-231 230 0
-231 801 0
232 -802 -229 0
-232 802 0
-232 229 0
233 -803 -6 0
-233 803 0
-233 6 0
234 -233 -39 0
-234 233 0
-234 39 0
235 -804 -232 0
-235 804 0
-235 232 0
236 -24 -1 0
-236 24 0
-236 1 0
237 -236 -41 0
-237 236 0
-237 41 0
238 -805 -235 0
-238 805 0
-238 235 0
239 -13 -9 0
-239 13 0
-239 9 0
240 -239 -729 0
-240 239 0
-240 729 0
241 -806 -238 0
-241 806 0
-241 238 0
242 -725 -701 0
-242 725 0
-242 701 0
243 -242 -705 0
-243 242 0
-243 705 0
244 -807 -241 0
-244 807 0
-244 241 0
245 -712 -4 0
-245 712 0
-245 4 0
246 -245 -49 0
-246 245 0
-246 49 0
247 -808 -244 0
-247 808 0
-247 244 0
248 -38 -727 0
-248 38 0
-248 727 0
249 -248 -14 0
-249 248 0
-249 14 0
250 -809 -247 0
-250 809 0
-250 247 0
251 -783 -27 0
-251 783 0
-251 27 0
252 -251 -793 0
-252 251 0
-252 793 0
253 -810 -250 0
-253 810 0
-253 250 0
254 -35 -1 0
-254 35 0
-254 1 0
255 -254 -723 0
-255 254 0
-255 723 0
256 -811 -253 0
-256 811 0
-256 253 0
257 -41 -733 0
-257 41 0
-257 733 0
258 -257 -812 0
-258 257 0
-258 812 0
259 -813 -256 0
-259 813 0
-259 256 0
260 -812 -22 0
-260 812 0
-260 22 0
261 -260 -3 0
-261 260 0
-261 3 0
262 -814 -259 0
-262 814 0
-262 259 0
263 -723 -712 0
-263 723 0
-263 712 0
264 -263 -29 0
-264 263 0
-264 29 0
265 -815 -262 0
-265 815 0
-265 262 0
266 -47 -43 0
-266 47 0
-266 43 0
267 -266 -7 0
-267 266 0
-267 7 0
268 -816 -265 0
-268 816 0
-268 265 0
269 -721 -817 0
-269 721 0
-269 817 0
270 -269 -7 0
-270 269 0
-270 7 0
271 -818 -268 0
-271 818 0
-271 268 0
272 -819 -708 0
-272 819 0
-272 708 0
273 -272 -803 0
-273 272 0
-273 803 0
274 -820 -271 0
-274 820 0
-274 271 0
275 -783 -4 0
-275 783 0
-275 4 0
276 -275 -20 0
-276 275 0
-276 20 0
277 -821 -274 0
-277 821 0
-277 274 0
278 -733 -23 0
-278 733 0
-278 23 0
279 -278 -46 0
-279 278 0
-279 46 0
280 -822 -277 0
-280 822 0
-280 277 0
281 -35 -27 0
-281 35 0
-281 27 0
282 -281 -721 0
-282 281 0
-282 721 0
283 -823 -280 0
-283 823 0
-283 280 0
284 -775 -6 0
-284 775 0
-284 6 0
285 -284 -7 0
-285 284 0
-285 7 0
286 -824 -283 0
-286 824 0
-286 283 0
287 -825 -1 0
-287 825 0
-287 1 0
288 -287 -775 0
-288 287 0
-288 775 0
289 -826 -286 0
-289 826 0
-289 286 0
290 -18 -5 0
-290 18 0
-290 5 0
291 -290 -43 0
-291 290 0
-291 43 0
292 -827 -289 0
-292 827 0
-292 289 0
293 -812 -746 0
-293 812 0
-293 746 0
294 -293 -20 0
-294 293 0
-294 20 0
295 -828 -292 0
-295 828 0
-295 292 0
296 -751 -721 0
-296 751 0
-296 721 0
297 -296 -7 0
-297 296 0
-297 7 0
298 -829 -295 0
-298 829 0
-298 295 0
299 -48 -44 0
-299 48 0
-299 44 0
300 -299 -701 0
-300 299 0
-300 701 0
301 -830 -298 0
-301 830 0
-301 298 0
302 -729 -8 0
-302 729 0
-302 8 0
303 -302 -756 0
-303 302 0
-303 756 0
304 -831 -301 0
-304 831 0
-304 301 0
305 -23 -15 0
-305 23 0
-305 15 0
306 -305 -39 0
-306 305 0
-306 39 0
307 -832 -304 0
-307 832 0
-307 304 0
308 -47 -742 0
-308 47 0
-308 742 0
309 -308 -770 0
-309 308 0
-309 770 0
310 -833 -307 0
-310 833 0
-310 307 0
311 -30 -2 0
-311 30 0
-311 2 0
312 -311 -36 0
-312 311 0
-312 36 0
313 -834 -310 0
-313 834 0
-313 310 0
314 -48 -754 0
-314 48 0
-314 754 0
315 -314 -39 0
-315 314 0
-315 39 0
316 -835 -313 0
-316 835 0
-316 313 0
317 -31 -755 0
-317 31 0
-317 755 0
318 -317 -12 0
-318 317 0
-318 12 0
319 -836 -316 0
-319 836 0
-319 316 0
320 -742 -722 0
-320 742 0
-320 722 0
321 -320 -738 0
-321 320 0
-321 738 0
322 -837 -319 0
-322 837 0
-322 319 0
323 -36 -30 0
-323 36 0
-323 30 0
324 -323 -739 0
-324 323 0
-324 739 0
325 -838 -322 0
-325 838 0
-325 322 0
326 -27 -723 0
-326 27 0
-326 723 0
327 -326 -40 0
-327 326 0
-327 40 0
328 -839 -325 0
-328 839 0
-328 325 0
329 -194 -36 0
-329 194 0
-329 36 0
330 -840 -328 0
-330 840 0
-330 328 0
331 -40 -712 0
-331 40 0
-331 712 0
332 -331 -735 0
-332 331 0
-332 735 0
333 -841 -330 0
-333 841 0
-333 330 0
334 -25 -8 0
-334 25 0
-334 8 0
335 -334 -749 0
-335 334 0
-335 749 0
336 -842 -333 0
-336 842 0
-336 333 0
337 -40 -26 0
-337 40 0
-337 26 0
338 -337 -801 0
-338 337 0
-338 801 0
339 -843 -336 0
-339 843 0
-339 336 0
340 -754 -35 0
-340 754 0
-340 35 0
341 -340 -844 0
-341 340 0
-341 844 0
342 -845 -339 0
-342 845 0
-342 339 0
343 -754 -29 0
-343 754 0
-343 29 0
344 -343 -39 0
-344 343 0
-344 39 0
345 -846 -342 0
-345 846 0
-345 342 0
346 -847 -25 0
-346 847 0
-346 25 0
347 -346 -775 0
-347 346 0
-347 775 0
348 -848 -345 0
-348 848 0
-348 345 0
349 -742 -725 0
-349 742 0
-349 725 0
350 -349 -730 0
-350 349 0
-350 730 0
351 -849 -348 0
-351 849 0
-351 348 0
352 -799 -44 0
-352 799 0
-352 44 0
353 -352 -751 0
-353 352 0
-353 751 0
354 -850 -351 0
-354 850 0
-354 351 0
355 -783 -744 0
-355 783 0
-355 744 0
356 -355 -775 0
-356 355 0
-356 775 0
357 -851 -354 0
-357 851 0
-357 354 0
358 -746 -34 0
-358 746 0
-358 34 0
359 -358 -28 0
-359 358 0
-359 28 0
360 -852 -357 0
-360 852 0
-360 357 0
361 -721 -9 0
-361 721 0
-361 9 0
362 -361 -32 0
-362 361 0
-362 32 0
363 -853 -360 0
-363 853 0
-363 360 0
364 -43 -29 0
-364 43 0
-364 29 0
365 -364 -10 0
-365 364 0
-365 10 0
366 -854 -363 0
-366 854 0
-366 363 0
367 -744 -20 0
-367 744 0
-367 20 0
368 -367 -12 0
-368 367 0
-368 12 0
369 -855 -366 0
-369 855 0
-369 366 0
370 -45 -856 0
-370 45 0
-370 856 0
371 -370 -730 0
-371 370 0
-371 730 0
372 -857 -369 0
-372 857 0
-372 369 0
373 -44 -775 0
-373 44 0
-373 775 0
374 -373 -705 0
-374 373 0
-374 705 0
375 -858 -372 0
-375 858 0
-375 372 0
376 -723 -729 0
-376 723 0
-376 729 0
377 -376 -40 0
-377 376 0
-377 40 0
378 -859 -375 0
-378 859 0
-378 375 0
379 -847 -44 0
-379 847 0
-379 44 0
380 -379 -10 0
-380 379 0
-380 10 0
381 -860 -378 0
-381 860 0
-381 378 0
382 -40 -733 0
-382 40 0
-382 733 0
383 -382 -739 0
-383 382 0
-383 739 0
384 -861 -381 0
-384 861 0
-384 381 0
385 -744 -722 0
-385 744 0
-385 722 0
386 -385 -746 0
-386 385 0
-386 746 0
387 -862 -384 0
-387 862 0
-387 384 0
388 -722 -801 0
-388 722 0
-388 801 0
389 -388 -730 0
-389 388 0
-389 730 0
390 -863 -387 0
-390 863 0
-390 387 0
391 -38 -712 0
-391 38 0
-391 712 0
392 -391 -41 0
-392 391 0
-392 41 0
393 -864 -390 0
-393 864 0
-393 390 0
394 -754 -751 0
-394 754 0
-394 751 0
395 -394 -20 0
-395 394 0
-395 20 0
396 -865 -393 0
-396 865 0
-396 393 0
397 -23 -713 0
-397 23 0
-397 713 0
398 -397 -730 0
-398 397 0
-398 730 0
399 -866 -396 0
-399 866 0
-399 396 0
400 -24 -22 0
-400 24 0
-400 22 0
401 -400 -764 0
-401 400 0
-401 764 0
402 -867 -399 0
-402 867 0
-402 399 0
403 -36 -33 0
-403 36 0
-403 33 0
404 -403 -705 0
-404 403 0
-404 705 0
405 -868 -402 0
-405 868 0
-405 402 0
406 -16 -9 0
-406 16 0
-406 9 0
407 -406 -719 0
-407 406 0
-407 719 0
408 -869 -405 0
-408 869 0
-408 405 0
409 -819 -733 0
-409 819 0
-409 733 0
410 -409 -34 0
-410 409 0
-410 34 0
411 -870 -408 0
-411 870 0
-411 408 0
412 -26 -1 0
-412 26 0
-412 1 0
413 -412 -42 0
-413 412 0
-413 42 0
414 -871 -411 0
-414 871 0
-414 411 0
415 -856 -722 0
-415 856 0
-415 722 0
416 -415 -749 0
-416 415 0
-416 749 0
417 -872 -414 0
-417 872 0
-417 414 0
418 -46 -13 0
-418 46 0
-418 13 0
419 -418 -764 0
-419 418 0
-419 764 0
420 -873 -417 0
-420 873 0
-420 417 0
421 -712 -739 0
-421 712 0
-421 739 0
422 -421 -10 0
-422 421 0
-422 10 0
423 -874 -420 0
-423 874 0
-423 420 0
424 -775 -13 0
-424 775 0
-424 13 0
425 -424 -764 0
-425 424 0
-425 764 0
426 -875 -423 0
-426 875 0
-426 423 0
427 -793 -34 0
-427 793 0
-427 34 0
428 -427 -749 0
-428 427 0
-428 749 0
429 -876 -426 0
-429 876 0
-429 426 0
430 -733 -708 0
-430 733 0
-430 708 0
431 -430 -775 0
-431 430 0
-431 775 0
432 -877 -429 0
-432 877 0
-432 429 0
433 -712 -708 0
-433 712 0
-433 708 0
434 -433 -878 0
-434 433 0
-434 878 0
435 -879 -432 0
-435 879 0
-435 432 0
436 -27 -26 0
-436 27 0
-436 26 0
437 -436 -8 0
-437 436 0
-437 8 0
438 -880 -435 0
-438 880 0
-438 435 0
439 -26 -713 0
-439 26 0
-439 713 0
440 -439 -7 0
-440 439 0
-440 7 0
441 -881 -438 0
-441 881 0
-441 438 0
442 -727 -4 0
-442 727 0
-442 4 0
443 -442 -856 0
-443 442 0
-443 856 0
444 -882 -441 0
-444 882 0
-444 441 0
445 -41 -34 0
-445 41 0
-445 34 0
446 -445 -764 0
-446 445 0
-446 764 0
447 -883 -444 0
-447 883 0
-447 444 0
448 -23 -14 0
-448 23 0
-448 14 0
449 -448 -30 0
-449 448 0
-449 30 0
450 -884 -447 0
-450 884 0
-450 447 0
451 -856 -725 0
-451 856 0
-451 725 0
452 -451 -11 0
-452 451 0
-452 11 0
453 -885 -450 0
-453 885 0
-453 450 0
454 -793 -21 0
-454 793 0
-454 21 0
455 -454 -709 0
-455 454 0
-455 709 0
456 -886 -453 0
-456 886 0
-456 453 0
457 -754 -749 0
-457 754 0
-457 749 0
458 -457 -709 0
-458 457 0
-458 709 0
459 -887 -456 0
-459 887 0
-459 456 0
460 -44 -751 0
-460 44 0
-460 751 0
461 -460 -712 0
-461 460 0
-461 712 0
462 -888 -459 0
-462 888 0
-462 459 0
463 -48 -22 0
-463 48 0
-463 22 0
464 -463 -825 0
-464 463 0
-464 825 0
465 -889 -462 0
-465 889 0
-465 462 0
466 -736 -727 0
-466 736 0
-466 727 0
467 -466 -715 0
-467 466 0
-467 715 0
468 -890 -465 0
-468 890 0
-468 465 0
469 -729 -705 0
-469 729 0
-469 705 0
470 -469 -12 0
-470 469 0
-470 12 0
471 -891 -468 0
-471 891 0
-471 468 0
472 -847 -799 0
-472 847 0
-472 799 0
473 -472 -41 0
-473 472 0
-473 41 0
474 -892 -471 0
-474 892 0
-474 471 0
475 -48 -744 0
-475 48 0
-475 744 0
476 -475 -739 0
-476 475 0
-476 739 0
477 -893 -474 0
-477 893 0
-477 474 0
478 -19 -715 0
-478 19 0
-478 715 0
479 -478 -749 0
-479 478 0
-479 749 0
480 -894 -477 0
-480 894 0
-480 477 0
481 -50 -43 0
-481 50 0
-481 43 0
482 -481 -812 0
-482 481 0
-482 812 0
483 -895 -480 0
-483 895 0
-483 480 0
484 -36 -13 0
-484 36 0
-484 13 0
485 -484 -803 0
-485 484 0
-485 803 0
486 -896 -483 0
-486 896 0
-486 483 0
487 -793 -24 0
-487 793 0
-487 24 0
488 -487 -856 0
-488 487 0
-488 856 0
489 -897 -486 0
-489 897 0
-489 486 0
490 -783 -817 0
-490 783 0
-490 817 0
491 -490 -30 0
-491 490 0
-491 30 0
492 -898 -489 0
-492 898 0
-492 489 0
493 -735 -733 0
-493 735 0
-493 733 0
494 -493 -739 0
-494 493 0
-494 739 0
495 -899 -492 0
-495 899 0
-495 492 0
496 -38 -701 0
-496 38 0
-496 701 0
497 -496 -11 0
-497 496 0
-497 11 0
498 -900 -495 0
-498 900 0
-498 495 0
499 -819 -719 0
-499 819 0
-499 719 0
500 -499 -730 0
-500 499 0
-500 730 0
501 -901 -498 0
-501 901 0
-501 498 0
502 -37 -733 0
-502 37 0
-502 733 0
503 -502 -43 0
-503 502 0
-503 43 0
504 -902 -501 0
-504 902 0
-504 501 0
505 -48 -34 0
-505 48 0
-505 34 0
506 -505 -47 0
-506 505 0
-506 47 0
507 -903 -504 0
-507 903 0
-507 504 0
508 -42 -21 0
-508 42 0
-508 21 0
509 -508 -32 0
-509 508 0
-509 32 0
510 -904 -507 0
-510 904 0
-510 507 0
511 -754 -32 0
-511 754 0
-511 32 0
512 -511 -3 0
-512 511 0
-512 3 0
513 -905 -510 0
-513 905 0
-513 510 0
514 -777 -727 0
-514 777 0
-514 727 0
515 -514 -723 0
-515 514 0
-515 723 0
516 -906 -513 0
-516 906 0
-516 513 0
517 -38 -725 0
-517 38 0
-517 725 0
518 -517 -49 0
-518 517 0
-518 49 0
519 -907 -516 0
-519 907 0
-519 516 0
520 -30 -739 0
-520 30 0
-520 739 0
521 -520 -15 0
-521 520 0
-521 15 0
522 -908 -519 0
-522 908 0
-522 519 0
523 -50 -735 0
-523 50 0
-523 735 0
524 -523 -39 0
-524 523 0
-524 39 0
525 -909 -522 0
-525 909 0
-525 522 0
526 -775 -15 0
-526 775 0
-526 15 0
527 -526 -20 0
-527 526 0
-527 20 0
528 -910 -525 0
-528 910 0
-528 525 0
529 -799 -735 0
-529 799 0
-529 735 0
530 -529 -20 0
-530 529 0
-530 20 0
531 -911 -528 0
-531 911 0
-531 528 0
532 -819 -21 0
-532 819 0
-532 21 0
533 -532 -856 0
-533 532 0
-533 856 0
534 -912 -531 0
-534 912 0
-534 531 0
535 -31 -721 0
-535 31 0
-535 721 0
536 -535 -3 0
-536 535 0
-536 3 0
537 -913 -534 0
-537 913 0
-537 534 0
538 -723 -721 0
-538 723 0
-538 721 0
539 -538 -33 0
-539 538 0
-539 33 0
540 -914 -537 0
-540 914 0
-540 537 0
541 -394 -15 0
-541 394 0
-541 15 0
542 -915 -540 0
-542 915 0
-542 540 0
543 -751 -739 0
-543 751 0
-543 739 0
544 -543 -39 0
-544 543 0
-544 39 0
545 -916 -542 0
-545 916 0
-545 542 0
546 -825 -19 0
-546 825 0
-546 19 0
547 -546 -29 0
-547 546 0
-547 29 0
548 -917 -545 0
-548 917 0
-548 545 0
549 -43 -1 0
-549 43 0
-549 1 0
550 -549 -801 0
-550 549 0
-550 801 0
551 -918 -548 0
-551 918 0
-551 548 0
552 -754 -5 0
-552 754 0
-552 5 0
553 -552 -783 0
-553 552 0
-553 783 0
554 -919 -551 0
-554 919 0
-554 551 0
555 -484 -717 0
-555 484 0
-555 717 0
556 -920 -554 0
-556 920 0
-556 554 0
557 -44 -763 0
-557 44 0
-557 763 0
558 -557 -29 0
-558 557 0
-558 29 0
559 -921 -556 0
-559 921 0
-559 556 0
560 -47 -723 0
-560 47 0
-560 723 0
561 -560 -41 0
-561 560 0
-561 41 0
562 -922 -559 0
-562 922 0
-562 559 0
563 -44 -733 0
-563 44 0
-563 733 0
564 -563 -738 0
-564 563 0
-564 738 0
565 -923 -562 0
-565 923 0
-565 562 0
566 -45 -23 0
-566 45 0
-566 23 0
567 -566 -735 0
-567 566 0
-567 735 0
568 -924 -565 0
-568 924 0
-568 565 0
569 -744 -721 0
-569 744 0
-569 721 0
570 -569 -749 0
-570 569 0
-570 749 0
571 -925 -568 0
-571 925 0
-571 568 0
572 -13 -5 0
-572 13 0
-572 5 0
573 -572 -23 0
-573 572 0
-573 23 0
574 -926 -571 0
-574 926 0
-574 571 0
575 -50 -715 0
-575 50 0
-575 715 0
576 -575 -775 0
-576 575 0
-576 775 0
577 -927 -574 0
-577 927 0
-577 574 0
578 -48 -24 0
-578 48 0
-578 24 0
579 -578 -40 0
-579 578 0
-579 40 0
580 -928 -577 0
-580 928 0
-580 577 0
581 -878 -742 0
-581 878 0
-581 742 0
582 -581 -3 0
-582 581 0
-582 3 0
583 -929 -580 0
-583 929 0
-583 580 0
584 -19 -817 0
-584 19 0
-584 817 0
585 -584 -756 0
-585 584 0
-585 756 0
586 -930 -583 0
-586 930 0
-586 583 0
587 -23 -729 0
-587 23 0
-587 729 0
588 -587 -705 0
-588 587 0
-588 705 0
589 -931 -586 0
-589 931 0
-589 586 0
590 -19 -14 0
-590 19 0
-590 14 0
591 -590 -730 0
-591 590 0
-591 730 0
592 -932 -589 0
-592 932 0
-592 589 0
593 -738 -701 0
-593 738 0
-593 701 0
594 -593 -735 0
-594 593 0
-594 735 0
595 -933 -592 0
-595 933 0
-595 592 0
596 -40 -35 0
-596 40 0
-596 35 0
597 -596 -749 0
-597 596 0
-597 749 0
598 -934 -595 0
-598 934 0
-598 595 0
599 -32 -763 0
-599 32 0
-599 763 0
600 -599 -3 0
-600 599 0
-600 3 0
601 -935 -598 0
-601 935 0
-601 598 0
602 -742 -32 0
-602 742 0
-602 32 0
603 -602 -3 0
-603 602 0
-603 3 0
604 -936 -601 0
-604 936 0
-604 601 0
605 -34 -23 0
-605 34 0
-605 23 0
606 -605 -801 0
-606 605 0
-606 801 0
607 -937 -604 0
-607 937 0
-607 604 0
608 -793 -33 0
-608 793 0
-608 33 0
609 -608 -775 0
-609 608 0
-609 775 0
610 -938 -607 0
-610 938 0
-610 607 0
611 -775 -742 0
-611 775 0
-611 742 0
612 -611 -10 0
-612 611 0
-612 10 0
613 -939 -610 0
-613 939 0
-613 610 0
614 -25 -708 0
-614 25 0
-614 708 0
615 -614 -17 0
-615 614 0
-615 17 0
616 -940 -613 0
-616 940 0
-616 613 0
617 -751 -727 0
-617 751 0
-617 727 0
618 -617 -29 0
-618 617 0
-618 29 0
619 -941 -616 0
-619 941 0
-619 616 0
620 -746 -725 0
-620 746 0
-620 725 0
621 -620 -775 0
-621 620 0
-621 775 0
622 -942 -619 0
-622 942 0
-622 619 0
623 -733 -801 0
-623 733 0
-623 801 0
624 -623 -28 0
-624 623 0
-624 28 0
625 -943 -622 0
-625 943 0
-625 622 0
626 -41 -9 0
-626 41 0
-626 9 0
627 -626 -803 0
-627 626 0
-627 803 0
628 -944 -625 0
-628 944 0
-628 625 0
629 -754 -6 0
-629 754 0
-629 6 0
630 -629 -793 0
-630 629 0
-630 793 0
631 -945 -628 0
-631 945 0
-631 628 0
632 -13 -755 0
-632 13 0
-632 755 0
633 -632 -10 0
-633 632 0
-633 10 0
634 -946 -631 0
-634 946 0
-634 631 0
635 -775 -712 0
-635 775 0
-635 712 0
636 -635 -812 0
-636 635 0
-636 812 0
637 -947 -634 0
-637 947 0
-637 634 0
638 -733 -715 0
-638 733 0
-638 715 0
639 -638 -783 0
-639 638 0
-639 783 0
640 -948 -637 0
-640 948 0
-640 637 0
641 -721 -706 0
-641 721 0
-641 706 0
642 -641 -738 0
-642 641 0
-642 738 0
643 -949 -640 0
-643 949 0
-643 640 0
644 -793 -727 0
-644 793 0
-644 727 0
645 -644 -856 0
-645 644 0
-645 856 0
646 -950 -643 0
-646 950 0
-646 643 0
647 -878 -25 0
-647 878 0
-647 25 0
648 -647 -746 0
-648 647 0
-648 746 0
649 -951 -646 0
-649 951 0
-649 646 0
650 -799 -13 0
-650 799 0
-650 13 0
651 -650 -751 0
-651 650 0
-651 751 0
652 -952 -649 0
-652 952 0
-652 649 0
653 -819 -754 0
-653 819 0
-653 754 0
654 -653 -24 0
-654 653 0
-654 24 0
655 -953 -652 0
-655 953 0
-655 652 0
656 -31 -18 0
-656 31 0
-656 18 0
657 -656 -812 0
-657 656 0
-657 812 0
658 -954 -655 0
-658 954 0
-658 655 0
659 -40 -14 0
-659 40 0
-659 14 0
660 -659 -717 0
-660 659 0
-660 717 0
661 -955 -658 0
-661 955 0
-661 658 0
662 -777 -754 0
-662 777 0
-662 754 0
663 -662 -13 0
-663 662 0
-663 13 0
664 -956 -661 0
-664 956 0
-664 661 0
665 -733 -721 0
-665 733 0
-665 721 0
666 -665 -8 0
-666 665 0
-666 8 0
667 -957 -664 0
-667 957 0
-667 664 0
668 -39 -27 0
-668 39 0
-668 27 0
669 -668 -709 0
-669 668 0
-669 709 0
670 -958 -667 0
-670 958 0
-670 667 0
671 -48 -16 0
-671 48 0
-671 16 0
672 -671 -847 0
-672 671 0
-672 847 0
673 -959 -670 0
-673 959 0
-673 670 0
674 -878 -719 0
-674 878 0
-674 719 0
675 -674 -3 0
-675 674 0
-675 3 0
676 -960 -673 0
-676 960 0
-676 673 0
677 -47 -763 0
-677 47 0
-677 763 0
678 -677 -1 0
-678 677 0
-678 1 0
679 -961 -676 0
-679 961 0
-679 676 0
680 -40 -18 0
-680 40 0
-680 18 0
681 -680 -29 0
-681 680 0
-681 29 0
682 -962 -679 0
-682 962 0
-682 679 0
683 -40 -725 0
-683 40 0
-683 725 0
684 -683 -8 0
-684 683 0
-684 8 0
685 -963 -682 0
-685 963 0
-685 682 0
686 -819 -23 0
-686 819 0
-686 23 0
687 -686 -15 0
-687 686 0
-687 15 0
688 -964 -685 0
-688 964 0
-688 685 0
689 -43 -24 0
-689 43 0
-689 24 0
690 -689 -39 0
-690 689 0
-690 39 0
691 -965 -688 0
-691 965 0
-691 688 0
692 -34 -32 0
-692 34 0
-692 32 0
693 -692 -739 0
-693 692 0
-693 739 0
694 -966 -691 0
-694 966 0
-694 691 0
695 -725 -715 0
-695 725 0
-695 715 0
696 -695 -701 0
-696 695 0
-696 701 0
697 -967 -694 0
-697 967 0
-697 694 0
698 -47 -35 0
-698 47 0
-698 35 0
699 -698 -746 0
-699 698 0
-699 746 0
700 -968 -697 0
-700 968 0
-700 697 0
-701 -1 0
701 1 0
-702 -5 0
702 5 0
-703 -54 0
703 54 0
-704 -52 0
704 52 0
-705 -7 0
705 7 0
-706 -6 0
706 6 0
-707 -57 0
707 57 0
-708 -9 0
708 9 0
-709 -3 0
709 3 0
-710 -60 0
710 60 0
-711 -63 0
711 63 0
-712 -14 0
712 14 0
-713 -13 0
713 13 0
-714 -66 0
714 66 0
-715 -17 0
715 17 0
-716 -69 0
716 69 0
-717 -20 0
717 20 0
-718 -72 0
718 72 0
-719 -21 0
719 21 0
-720 -75 0
720 75 0
-721 -19 0
721 19 0
-722 -18 0
722 18 0
-723 -22 0
723 22 0
-724 -78 0
724 78 0
-725 -23 0
725 23 0
-726 -81 0
726 81 0
-727 -25 0
727 25 0
-728 -84 0
728 84 0
-729 -16 0
729 16 0
-730 -28 0
730 28 0
-731 -87 0
731 87 0
-732 -90 0
732 90 0
-733 -27 0
733 27 0
-734 -93 0
734 93 0
-735 -32 0
735 32 0
-736 -31 0
736 31 0
-737 -96 0
737 96 0
-738 -33 0
738 33 0
-739 -8 0
739 8 0
-740 -99 0
740 99 0
-741 -102 0
741 102 0
-742 -34 0
742 34 0
-743 -105 0
743 105 0
-744 -35 0
744 35 0
-745 -108 0
745 108 0
-746 -36 0
746 36 0
-747 -111 0
747 111 0
-748 -114 0
748 114 0
-749 -11 0
749 11 0
-750 -117 0
750 117 0
-751 -37 0
751 37 0
-752 -120 0
752 120 0
-753 -123 0
753 123 0
-754 -38 0
754 38 0
-755 -2 0
755 2 0
-756 -39 0
756 39 0
-757 -126 0
757 126 0
-758 -129 0
758 129 0
-759 -132 0
759 132 0
-760 -40 0
760 40 0
-761 -135 0
761 135 0
-762 -138 0
762 138 0
-763 -26 0
763 26 0
-764 -10 0
764 10 0
-765 -141 0
765 141 0
-766 -144 0
766 144 0
-767 -147 0
767 147 0
-768 -150 0
768 150 0
-769 -153 0
769 153 0
-770 -24 0
770 24 0
-771 -156 0
771 156 0
-772 -159 0
772 159 0
-773 -162 0
773 162 0
-774 -165 0
774 165 0
-775 -43 0
775 43 0
-776 -168 0
776 168 0
-777 -44 0
777 44 0
-778 -171 0
778 171 0
-779 -174 0
779 174 0
-780 -177 0
780 177 0
-781 -180 0
781 180 0
-782 -183 0
782 183 0
-783 -47 0
783 47 0
-784 -186 0
784 186 0
-785 -189 0
785 189 0
-786 -192 0
786 192 0
-787 -195 0
787 195 0
-788 -198 0
788 198 0
-789 -201 0
789 201 0
-790 -204 0
790 204 0
-791 -207 0
791 207 0
-792 -210 0
792 210 0
-793 -42 0
793 42 0
-794 -213 0
794 213 0
-795 -216 0
795 216 0
-796 -219 0
796 219 0
-797 -222 0
797 222 0
-798 -225 0
798 225 0
-799 -48 0
799 48 0
-800 -228 0
800 228 0
-801 -12 0
801 12 0
-802 -231 0
802 231 0
-803 -15 0
803 15 0
-804 -234 0
804 234 0
-805 -237 0
805 237 0
-806 -240 0
806 240 0
-807 -243 0
807 243 0
-808 -246 0
808 246 0
-809 -249 0
809 249 0
-810 -252 0
810 252 0
-811 -255 0
811 255 0
-812 -46 0
812 46 0
-813 -258 0
813 258 0
-814 -261 0
814 261 0
-815 -264 0
815 264 0
-816 -267 0
816 267 0
-817 -4 0
817 4 0
-818 -270 0
818 270 0
-819 -45 0
819 45 0
-820 -273 0
820 273 0
-821 -276 0
821 276 0
-822 -279 0
822 279 0
-823 -282 0
823 282 0
-824 -285 0
824 285 0
-825 -30 0
825 30 0
-826 -288 0
826 288 0
-827 -291 0
827 291 0
-828 -294 0
828 294 0
-829 -297 0
829 297 0
-830 -300 0
830 300 0
-831 -303 0
831 303 0
-832 -306 0
832 306 0
-833 -309 0
833 309 0
-834 -312 0
834 312 0
-835 -315 0
835 315 0
-836 -318 0
836 318 0
-837 -321 0
837 321 0
-838 -324 0
838 324 0
-839 -327 0
839 327 0
-840 -329 0
840 329 0
-841 -332 0
841 332 0
-842 -335 0
842 335 0
-843 -338 0
843 338 0
-844 -49 0
844 49 0
-845 -341 0
845 341 0
-846 -344 0
846 344 0
-847 -50 0
847 50 0
-848 -347 0
848 347 0
-849 -350 0
849 350 0
-850 -353 0
850 353 0
-851 -356 0
851 356 0
-852 -359 0
852 359 0
-853 -362 0
853 362 0
-854 -365 0
854 365 0
-855 -368 0
855 368 0
-856 -29 0
856 29 0
-857 -371 0
857 371 0
-858 -374 0
858 374 0
-859 -377 0
859 377 0
-860 -380 0
860 380 0
-861 -383 0
861 383 0
-862 -386 0
862 386 0
-863 -389 0
863 389 0
-864 -392 0
864 392 0
-865 -395 0
865 395 0
-866 -398 0
866 398 0
-867 -401 0
867 401 0
-868 -404 0
868 404 0
-869 -407 0
869 407 0
-870 -410 0
870 410 0
-871 -413 0
871 413 0
-872 -416 0
872 416 0
-873 -419 0
873 419 0
-874 -422 0
874 422 0
-875 -425 0
875 425 0
-876 -428 0
876 428 0
-877 -431 0
877 431 0
-878 -41 0
878 41 0
-879 -434 0
879 434 0
-880 -437 0
880 437 0
-881 -440 0
881 440 0
-882 -443 0
882 443 0
-883 -446 0
883 446 0
-884 -449 0
884 449 0
-885 -452 0
885 452 0
-886 -455 0
886 455 0
-887 -458 0
887 458 0
-888 -461 0
888 461 0
-889 -464 0
889 464 0
-890 -467 0
890 467 0
-891 -470 0
891 470 0
-892 -473 0
892 473 0
-893 -476 0
893 476 0
-894 -479 0
894 479 0
-895 -482 0
895 482 0
-896 -485 0
896 485 0
-897 -488 0
897 488 0
-898 -491 0
898 491 0
-899 -494 0
899 494 0
-900 -497 0
900 497 0
-901 -500 0
901 500 0
-902 -503 0
902 503 0
-903 -506 0
903 506 0
-904 -509 0
904 509 0
-905 -512 0
905 512 0
-906 -515 0
906 515 0
-907 -518 0
907 518 0
-908 -521 0
908 521 0
-909 -524 0
909 524 0
-910 -527 0
910 527 0
-911 -530 0
911 530 0
-912 -533 0
912 533 0
-913 -536 0
913 536 0
-914 -539 0
914 539 0
-915 -541 0
915 541 0
-916 -544 0
916 544 0
-917 -547 0
917 547 0
-918 -550 0
918 550 0
-919 -553 0
919 553 0
-920 -555 0
920 555 0
-921 -558 0
921 558 0
-922 -561 0
922 561 0
-923 -564 0
923 564 0
-924 -567 0
924 567 0
-925 -570 0
925 570 0
-926 -573 0
926 573 0
-927 -576 0
927 576 0
-928 -579 0
928 579 0
-929 -582 0
929 582 0
-930 -585 0
930 585 0
-931 -588 0
931 588 0
-932 -591 0
932 591 0
-933 -594 0
933 594 0
-934 -597 0
934 597 0
-935 -600 0
935 600 0
-936 -603 0
936 603 0
-937 -606 0
937 606 0
-938 -609 0
938 609 0
-939 -612 0
939 612 0
-940 -615 0
940 615 0
-941 -618 0
941 618 0
-942 -621 0
942 621 0
-943 -624 0
943 624 0
-944 -627 0
944 627 0
-945 -630 0
945 630 0
-946 -633 0
946 633 0
-947 -636 0
947 636 0
-948 -639 0
948 639 0
-949 -642 0
949 642 0
-950 -645 0
950 645 0
-951 -648 0
951 648 0
-952 -651 0
952 651 0
-953 -654 0
953 654 0
-954 -657 0
954 657 0
-955 -660 0
955 660 0
-956 -663 0
956 663 0
-957 -666 0
957 666 0
-958 -669 0
958 669 0
-959 -672 0
959 672 0
-960 -675 0
960 675 0
-961 -678 0
961 678 0
-962 -681 0
962 681 0
-963 -684 0
963 684 0
-964 -687 0
964 687 0
-965 -690 0
965 690 0
-966 -693 0
966 693 0
-967 -696 0
967 696 0
-968 -699 0
968 699 0
700 0
